Version identifier: 22.1.1.0 | 2022-11-28 | 9160aff4d
CPXPARAM_Threads                                 1
CPXPARAM_MIP_Strategy_VariableSelect             3
CPXPARAM_TimeLimit                               599.99922229799995
Found incumbent of value 0.000000 after 0.00 sec. (0.19 ticks)

Root node processing (before b&c):
  Real time             =    0.00 sec. (0.22 ticks)
Sequential b&c:
  Real time             =    0.00 sec. (0.00 ticks)
                          ------------
Total (root+branch&cut) =    0.00 sec. (0.22 ticks)
Version identifier: 22.1.1.0 | 2022-11-28 | 9160aff4d
CPXPARAM_Threads                                 1
CPXPARAM_MIP_Strategy_VariableSelect             3
CPXPARAM_TimeLimit                               599.99364432799996
Found incumbent of value 0.000000 after 0.00 sec. (0.25 ticks)

Root node processing (before b&c):
  Real time             =    0.00 sec. (0.29 ticks)
Sequential b&c:
  Real time             =    0.00 sec. (0.00 ticks)
                          ------------
Total (root+branch&cut) =    0.00 sec. (0.29 ticks)
Version identifier: 22.1.1.0 | 2022-11-28 | 9160aff4d
CPXPARAM_Threads                                 1
CPXPARAM_MIP_Strategy_VariableSelect             3
CPXPARAM_TimeLimit                               599.98734952999996
Found incumbent of value 0.000000 after 0.00 sec. (0.28 ticks)

Root node processing (before b&c):
  Real time             =    0.00 sec. (0.32 ticks)
Sequential b&c:
  Real time             =    0.00 sec. (0.00 ticks)
                          ------------
Total (root+branch&cut) =    0.00 sec. (0.32 ticks)
Version identifier: 22.1.1.0 | 2022-11-28 | 9160aff4d
CPXPARAM_Threads                                 1
CPXPARAM_MIP_Strategy_VariableSelect             3
CPXPARAM_TimeLimit                               599.98017587699997
Tried aggregator 1 time.
MIP Presolve eliminated 391 rows and 760 columns.
MIP Presolve modified 1 coefficients.
Reduced MIP has 761 rows, 1520 columns, and 9600 nonzeros.
Reduced MIP has 1520 binaries, 0 generals, 0 SOSs, and 0 indicators.
Presolve time = 0.01 sec. (6.85 ticks)
Found incumbent of value 0.000000 after 0.01 sec. (16.33 ticks)

Root node processing (before b&c):
  Real time             =    0.01 sec. (16.41 ticks)
Sequential b&c:
  Real time             =    0.00 sec. (0.00 ticks)
                          ------------
Total (root+branch&cut) =    0.01 sec. (16.41 ticks)
Version identifier: 22.1.1.0 | 2022-11-28 | 9160aff4d
CPXPARAM_Threads                                 1
CPXPARAM_MIP_Strategy_VariableSelect             3
CPXPARAM_TimeLimit                               599.95863363599994
Tried aggregator 1 time.
MIP Presolve eliminated 401 rows and 780 columns.
MIP Presolve modified 1 coefficients.
Reduced MIP has 781 rows, 1560 columns, and 9855 nonzeros.
Reduced MIP has 1560 binaries, 0 generals, 0 SOSs, and 0 indicators.
Presolve time = 0.01 sec. (7.04 ticks)
Found incumbent of value 0.000000 after 0.02 sec. (19.43 ticks)

Root node processing (before b&c):
  Real time             =    0.02 sec. (19.52 ticks)
Sequential b&c:
  Real time             =    0.00 sec. (0.00 ticks)
                          ------------
Total (root+branch&cut) =    0.02 sec. (19.52 ticks)
Version identifier: 22.1.1.0 | 2022-11-28 | 9160aff4d
CPXPARAM_Threads                                 1
CPXPARAM_MIP_Strategy_VariableSelect             3
CPXPARAM_TimeLimit                               599.93454528500001
Tried aggregator 1 time.
MIP Presolve eliminated 405 rows and 788 columns.
MIP Presolve modified 1 coefficients.
Reduced MIP has 789 rows, 1576 columns, and 9957 nonzeros.
Reduced MIP has 1576 binaries, 0 generals, 0 SOSs, and 0 indicators.
Presolve time = 0.01 sec. (7.11 ticks)
Probing time = 0.00 sec. (3.78 ticks)
Tried aggregator 1 time.
Detecting symmetries...
Reduced MIP has 789 rows, 1576 columns, and 9957 nonzeros.
Reduced MIP has 1576 binaries, 0 generals, 0 SOSs, and 0 indicators.
Presolve time = 0.00 sec. (5.96 ticks)
Probing time = 0.00 sec. (3.78 ticks)
Clique table members: 394.
MIP emphasis: balance optimality and feasibility.
MIP search method: dynamic search.
Parallel mode: none, using 1 thread.
Root relaxation solution time = 0.00 sec. (7.88 ticks)

        Nodes                                         Cuts/
   Node  Left     Objective  IInf  Best Integer    Best Bound    ItCnt     Gap

      0     0        0.0000    10                      0.0000      264         
*     0+    0                            0.0000        0.0000             0.00%
      0     0        cutoff              0.0000        0.0000      264    0.00%
Elapsed time = 0.03 sec. (44.22 ticks, tree = 0.01 MB, solutions = 1)

Root node processing (before b&c):
  Real time             =    0.03 sec. (44.29 ticks)
Sequential b&c:
  Real time             =    0.00 sec. (0.00 ticks)
                          ------------
Total (root+branch&cut) =    0.03 sec. (44.29 ticks)
Version identifier: 22.1.1.0 | 2022-11-28 | 9160aff4d
CPXPARAM_Threads                                 1
CPXPARAM_MIP_Strategy_VariableSelect             3
CPXPARAM_TimeLimit                               599.895534881
Tried aggregator 1 time.
MIP Presolve eliminated 407 rows and 792 columns.
MIP Presolve modified 1 coefficients.
Reduced MIP has 793 rows, 1584 columns, and 10008 nonzeros.
Reduced MIP has 1584 binaries, 0 generals, 0 SOSs, and 0 indicators.
Presolve time = 0.01 sec. (7.15 ticks)
Probing time = 0.00 sec. (3.79 ticks)
Tried aggregator 1 time.
Detecting symmetries...
Reduced MIP has 793 rows, 1584 columns, and 10008 nonzeros.
Reduced MIP has 1584 binaries, 0 generals, 0 SOSs, and 0 indicators.
Presolve time = 0.00 sec. (6.00 ticks)
Probing time = 0.00 sec. (3.79 ticks)
Clique table members: 396.
MIP emphasis: balance optimality and feasibility.
MIP search method: dynamic search.
Parallel mode: none, using 1 thread.
Root relaxation solution time = 0.01 sec. (8.98 ticks)

        Nodes                                         Cuts/
   Node  Left     Objective  IInf  Best Integer    Best Bound    ItCnt     Gap

*     0     0      integral     0        0.0000        0.0000      290    0.00%
Elapsed time = 0.03 sec. (43.46 ticks, tree = 0.00 MB, solutions = 1)

Root node processing (before b&c):
  Real time             =    0.03 sec. (43.53 ticks)
Sequential b&c:
  Real time             =    0.00 sec. (0.00 ticks)
                          ------------
Total (root+branch&cut) =    0.03 sec. (43.53 ticks)
Version identifier: 22.1.1.0 | 2022-11-28 | 9160aff4d
CPXPARAM_Threads                                 1
CPXPARAM_MIP_Strategy_VariableSelect             3
CPXPARAM_TimeLimit                               599.85703927099996
Tried aggregator 1 time.
MIP Presolve eliminated 409 rows and 796 columns.
MIP Presolve modified 1 coefficients.
Reduced MIP has 797 rows, 1592 columns, and 10059 nonzeros.
Reduced MIP has 1592 binaries, 0 generals, 0 SOSs, and 0 indicators.
Presolve time = 0.01 sec. (7.18 ticks)
Found incumbent of value 0.000000 after 0.02 sec. (19.69 ticks)

Root node processing (before b&c):
  Real time             =    0.02 sec. (19.77 ticks)
Sequential b&c:
  Real time             =    0.00 sec. (0.00 ticks)
                          ------------
Total (root+branch&cut) =    0.02 sec. (19.77 ticks)
Primal:	199
Dual:	199
Status:	Optimal
Time:	0.166737
Sequence:
	0
	4
	5
	1
	4
	0
	5
	9
	5
	5
	10
	9
	0
	1
	9
	1
	1
	9
	5
	9
	5
	5
	9
	0
	9
	5
	10
	10
	9
	5
	4
	1
	1
	1
	9
	10
	4
	5
	1
	0
	9
	5
	0
	5
	9
	0
	5
	9
	1
	0
	9
	5
	4
	0
	9
	4
	5
	0
	5
	9
	1
	1
	4
	0
	4
	1
	5
	9
	5
	5
	9
	5
	5
	0
	9
	5
	5
	3
	9
	10
	5
	0
	4
	5
	1
	1
	9
	1
	1
	9
	10
	5
	1
	4
	10
	1
	0
	4
	1
	9
	5
	0
	1
	9
	9
	5
	4
	9
	0
	5
	9
	5
	0
	9
	1
	9
	8
	10
	9
	4
	5
	0
	5
	4
	9
	5
	0
	5
	9
	4
	1
	1
	4
	4
	9
	1
	9
	1
	5
	9
	9
	1
	4
	9
	9
	10
	10
	10
	4
	1
	0
	1
	9
	5
	1
	4
	10
	4
	5
	1
	4
	9
	4
	0
	5
	5
	9
	0
	5
	4
	10
	0
	1
	9
	4
	4
	0
	9
	5
	0
	4
	9
	0
	5
	9
	4
	5
	0
	9
	4
	4
	1
	4
	9
	4
	10
	10
	9
	10
